# General
units           metal
dimension       3
atom_style      atomic
neighbor        0.3 bin


# Structure
boundary        p p p
read_data       structure_ortho.lammps
mass 1 78.971
mass 2 183.84
mass 3 78.971
mass 4 78.971
mass 5 183.84
mass 6 78.971
mass 7 78.971
mass 8 183.84
mass 9 78.971
mass 10 78.971
mass 11 183.84
mass 12 78.971
mass 13 32.06
mass 14 183.84
mass 15 32.06
mass 16 32.06
mass 17 183.84
mass 18 32.06
mass 19 32.06
mass 20 183.84
mass 21 32.06
mass 22 32.06
mass 23 183.84
mass 24 32.06
mass 25 10.81
mass 26 10.81
mass 27 10.81
mass 28 10.81
mass 29 14.007
mass 30 14.007
mass 31 14.007
mass 32 14.007
mass 33 10.81
mass 34 10.81
mass 35 10.81
mass 36 10.81
mass 37 14.007
mass 38 14.007
mass 39 14.007
mass 40 14.007

# potential definitions
pair_style hybrid/overlay sw/mod sw/mod tersoff tersoff kolmogorov/crespi/z 14.0 kolmogorov/crespi/z 14.0 kolmogorov/crespi/z 14.0 kolmogorov/crespi/z 14.0 kolmogorov/crespi/z 14.0 kolmogorov/crespi/z 14.0 kolmogorov/crespi/z 14.0 kolmogorov/crespi/z 14.0 kolmogorov/crespi/z 14.0 kolmogorov/crespi/z 14.0 kolmogorov/crespi/z 14.0 kolmogorov/crespi/z 14.0 kolmogorov/crespi/z 14.0 kolmogorov/crespi/z 14.0 kolmogorov/crespi/z 14.0 kolmogorov/crespi/z 14.0 kolmogorov/crespi/z 14.0 kolmogorov/crespi/z 14.0 kolmogorov/crespi/z 14.0 kolmogorov/crespi/z 14.0 kolmogorov/crespi/z 14.0 kolmogorov/crespi/z 14.0 kolmogorov/crespi/z 14.0 kolmogorov/crespi/z 14.0 kolmogorov/crespi/z 14.0 kolmogorov/crespi/z 14.0 kolmogorov/crespi/z 14.0 kolmogorov/crespi/z 14.0 kolmogorov/crespi/z 14.0 kolmogorov/crespi/z 14.0 kolmogorov/crespi/z 14.0 kolmogorov/crespi/z 14.0 kolmogorov/crespi/z 14.0 kolmogorov/crespi/z 14.0 kolmogorov/crespi/z 14.0 kolmogorov/crespi/z 14.0 kolmogorov/crespi/z 14.0 kolmogorov/crespi/z 14.0 kolmogorov/crespi/z 14.0 kolmogorov/crespi/z 14.0 kolmogorov/crespi/z 14.0 kolmogorov/crespi/z 14.0 kolmogorov/crespi/z 14.0 kolmogorov/crespi/z 14.0 kolmogorov/crespi/z 14.0 kolmogorov/crespi/z 14.0 kolmogorov/crespi/z 14.0 kolmogorov/crespi/z 14.0 kolmogorov/crespi/z 14.0 kolmogorov/crespi/z 14.0 kolmogorov/crespi/z 14.0 kolmogorov/crespi/z 14.0 kolmogorov/crespi/z 14.0 kolmogorov/crespi/z 14.0 kolmogorov/crespi/z 14.0 kolmogorov/crespi/z 14.0 kolmogorov/crespi/z 14.0 kolmogorov/crespi/z 14.0 kolmogorov/crespi/z 14.0 kolmogorov/crespi/z 14.0 kolmogorov/crespi/z 14.0 kolmogorov/crespi/z 14.0 kolmogorov/crespi/z 14.0 kolmogorov/crespi/z 14.0 kolmogorov/crespi/z 14.0 kolmogorov/crespi/z 14.0 kolmogorov/crespi/z 14.0 kolmogorov/crespi/z 14.0 kolmogorov/crespi/z 14.0 kolmogorov/crespi/z 14.0 kolmogorov/crespi/z 14.0 kolmogorov/crespi/z 14.0 kolmogorov/crespi/z 14.0 kolmogorov/crespi/z 14.0 kolmogorov/crespi/z 14.0 kolmogorov/crespi/z 14.0 kolmogorov/crespi/z 14.0 kolmogorov/crespi/z 14.0 kolmogorov/crespi/z 14.0 kolmogorov/crespi/z 14.0 kolmogorov/crespi/z 14.0 kolmogorov/crespi/z 14.0 kolmogorov/crespi/z 14.0 kolmogorov/crespi/z 14.0 kolmogorov/crespi/z 14.0 kolmogorov/crespi/z 14.0 kolmogorov/crespi/z 14.0 kolmogorov/crespi/z 14.0 kolmogorov/crespi/z 14.0 kolmogorov/crespi/z 14.0 kolmogorov/crespi/z 14.0 kolmogorov/crespi/z 14.0 kolmogorov/crespi/z 14.0 kolmogorov/crespi/z 14.0 kolmogorov/crespi/z 14.0 kolmogorov/crespi/z 14.0 kolmogorov/crespi/z 14.0 kolmogorov/crespi/z 14.0 kolmogorov/crespi/z 14.0 kolmogorov/crespi/z 14.0 kolmogorov/crespi/z 14.0 kolmogorov/crespi/z 14.0 kolmogorov/crespi/z 14.0 kolmogorov/crespi/z 14.0 kolmogorov/crespi/z 14.0 kolmogorov/crespi/z 14.0 kolmogorov/crespi/z 14.0 kolmogorov/crespi/z 14.0 kolmogorov/crespi/z 14.0 kolmogorov/crespi/z 14.0 kolmogorov/crespi/z 14.0 kolmogorov/crespi/z 14.0 kolmogorov/crespi/z 14.0 kolmogorov/crespi/z 14.0 kolmogorov/crespi/z 14.0 kolmogorov/crespi/z 14.0 kolmogorov/crespi/z 14.0 kolmogorov/crespi/z 14.0 kolmogorov/crespi/z 14.0 kolmogorov/crespi/z 14.0 kolmogorov/crespi/z 14.0 kolmogorov/crespi/z 14.0 kolmogorov/crespi/z 14.0 kolmogorov/crespi/z 14.0 kolmogorov/crespi/z 14.0 kolmogorov/crespi/z 14.0 kolmogorov/crespi/z 14.0 kolmogorov/crespi/z 14.0 lj/cut 10.0
# Number of interlayer interactions = 128

# intralayer interactions
pair_coeff * * sw/mod 1 h-wse2.sw Se1 W1 Se2 Se3 W2 Se4 Se5 W3 Se6 Se7 W4 Se8 NULL NULL NULL NULL NULL NULL NULL NULL NULL NULL NULL NULL NULL NULL NULL NULL NULL NULL NULL NULL NULL NULL NULL NULL NULL NULL NULL NULL
pair_coeff * * sw/mod 2 h-ws2.sw NULL NULL NULL NULL NULL NULL NULL NULL NULL NULL NULL NULL S1 W1 S2 S3 W2 S4 S5 W3 S6 S7 W4 S8 NULL NULL NULL NULL NULL NULL NULL NULL NULL NULL NULL NULL NULL NULL NULL NULL
pair_coeff * * tersoff 1 BNC.tersoff NULL NULL NULL NULL NULL NULL NULL NULL NULL NULL NULL NULL NULL NULL NULL NULL NULL NULL NULL NULL NULL NULL NULL NULL B B B B N N N N NULL NULL NULL NULL NULL NULL NULL NULL
pair_coeff * * tersoff 2 BNC.tersoff NULL NULL NULL NULL NULL NULL NULL NULL NULL NULL NULL NULL NULL NULL NULL NULL NULL NULL NULL NULL NULL NULL NULL NULL NULL NULL NULL NULL NULL NULL NULL NULL B B B B N N N N

pair_coeff * * lj/cut 0.0 3.4

#------------------------------------------
# Se-S KC interactions.
#------------------------------------------
pair_coeff 3 13 kolmogorov/crespi/z 1 MoWSSe.KC NULL NULL Se NULL NULL NULL NULL NULL NULL NULL NULL NULL S NULL NULL NULL NULL NULL NULL NULL NULL NULL NULL NULL NULL NULL NULL NULL NULL NULL NULL NULL NULL NULL NULL NULL NULL NULL NULL NULL
pair_coeff 3 16 kolmogorov/crespi/z 2 MoWSSe.KC NULL NULL Se NULL NULL NULL NULL NULL NULL NULL NULL NULL NULL NULL NULL S NULL NULL NULL NULL NULL NULL NULL NULL NULL NULL NULL NULL NULL NULL NULL NULL NULL NULL NULL NULL NULL NULL NULL NULL
pair_coeff 3 19 kolmogorov/crespi/z 3 MoWSSe.KC NULL NULL Se NULL NULL NULL NULL NULL NULL NULL NULL NULL NULL NULL NULL NULL NULL NULL S NULL NULL NULL NULL NULL NULL NULL NULL NULL NULL NULL NULL NULL NULL NULL NULL NULL NULL NULL NULL NULL
pair_coeff 3 22 kolmogorov/crespi/z 4 MoWSSe.KC NULL NULL Se NULL NULL NULL NULL NULL NULL NULL NULL NULL NULL NULL NULL NULL NULL NULL NULL NULL NULL S NULL NULL NULL NULL NULL NULL NULL NULL NULL NULL NULL NULL NULL NULL NULL NULL NULL NULL
pair_coeff 6 13 kolmogorov/crespi/z 5 MoWSSe.KC NULL NULL NULL NULL NULL Se NULL NULL NULL NULL NULL NULL S NULL NULL NULL NULL NULL NULL NULL NULL NULL NULL NULL NULL NULL NULL NULL NULL NULL NULL NULL NULL NULL NULL NULL NULL NULL NULL NULL
pair_coeff 6 16 kolmogorov/crespi/z 6 MoWSSe.KC NULL NULL NULL NULL NULL Se NULL NULL NULL NULL NULL NULL NULL NULL NULL S NULL NULL NULL NULL NULL NULL NULL NULL NULL NULL NULL NULL NULL NULL NULL NULL NULL NULL NULL NULL NULL NULL NULL NULL
pair_coeff 6 19 kolmogorov/crespi/z 7 MoWSSe.KC NULL NULL NULL NULL NULL Se NULL NULL NULL NULL NULL NULL NULL NULL NULL NULL NULL NULL S NULL NULL NULL NULL NULL NULL NULL NULL NULL NULL NULL NULL NULL NULL NULL NULL NULL NULL NULL NULL NULL
pair_coeff 6 22 kolmogorov/crespi/z 8 MoWSSe.KC NULL NULL NULL NULL NULL Se NULL NULL NULL NULL NULL NULL NULL NULL NULL NULL NULL NULL NULL NULL NULL S NULL NULL NULL NULL NULL NULL NULL NULL NULL NULL NULL NULL NULL NULL NULL NULL NULL NULL
pair_coeff 9 13 kolmogorov/crespi/z 9 MoWSSe.KC NULL NULL NULL NULL NULL NULL NULL NULL Se NULL NULL NULL S NULL NULL NULL NULL NULL NULL NULL NULL NULL NULL NULL NULL NULL NULL NULL NULL NULL NULL NULL NULL NULL NULL NULL NULL NULL NULL NULL
pair_coeff 9 16 kolmogorov/crespi/z 10 MoWSSe.KC NULL NULL NULL NULL NULL NULL NULL NULL Se NULL NULL NULL NULL NULL NULL S NULL NULL NULL NULL NULL NULL NULL NULL NULL NULL NULL NULL NULL NULL NULL NULL NULL NULL NULL NULL NULL NULL NULL NULL
pair_coeff 9 19 kolmogorov/crespi/z 11 MoWSSe.KC NULL NULL NULL NULL NULL NULL NULL NULL Se NULL NULL NULL NULL NULL NULL NULL NULL NULL S NULL NULL NULL NULL NULL NULL NULL NULL NULL NULL NULL NULL NULL NULL NULL NULL NULL NULL NULL NULL NULL
pair_coeff 9 22 kolmogorov/crespi/z 12 MoWSSe.KC NULL NULL NULL NULL NULL NULL NULL NULL Se NULL NULL NULL NULL NULL NULL NULL NULL NULL NULL NULL NULL S NULL NULL NULL NULL NULL NULL NULL NULL NULL NULL NULL NULL NULL NULL NULL NULL NULL NULL
pair_coeff 12 13 kolmogorov/crespi/z 13 MoWSSe.KC NULL NULL NULL NULL NULL NULL NULL NULL NULL NULL NULL Se S NULL NULL NULL NULL NULL NULL NULL NULL NULL NULL NULL NULL NULL NULL NULL NULL NULL NULL NULL NULL NULL NULL NULL NULL NULL NULL NULL
pair_coeff 12 16 kolmogorov/crespi/z 14 MoWSSe.KC NULL NULL NULL NULL NULL NULL NULL NULL NULL NULL NULL Se NULL NULL NULL S NULL NULL NULL NULL NULL NULL NULL NULL NULL NULL NULL NULL NULL NULL NULL NULL NULL NULL NULL NULL NULL NULL NULL NULL
pair_coeff 12 19 kolmogorov/crespi/z 15 MoWSSe.KC NULL NULL NULL NULL NULL NULL NULL NULL NULL NULL NULL Se NULL NULL NULL NULL NULL NULL S NULL NULL NULL NULL NULL NULL NULL NULL NULL NULL NULL NULL NULL NULL NULL NULL NULL NULL NULL NULL NULL
pair_coeff 12 22 kolmogorov/crespi/z 16 MoWSSe.KC NULL NULL NULL NULL NULL NULL NULL NULL NULL NULL NULL Se NULL NULL NULL NULL NULL NULL NULL NULL NULL S NULL NULL NULL NULL NULL NULL NULL NULL NULL NULL NULL NULL NULL NULL NULL NULL NULL NULL

#------------------------------------------
# W-W KC interactions.
#------------------------------------------
pair_coeff 2 14 kolmogorov/crespi/z 17 MoWSSe.KC NULL W NULL NULL NULL NULL NULL NULL NULL NULL NULL NULL NULL W NULL NULL NULL NULL NULL NULL NULL NULL NULL NULL NULL NULL NULL NULL NULL NULL NULL NULL NULL NULL NULL NULL NULL NULL NULL NULL
pair_coeff 2 17 kolmogorov/crespi/z 18 MoWSSe.KC NULL W NULL NULL NULL NULL NULL NULL NULL NULL NULL NULL NULL NULL NULL NULL W NULL NULL NULL NULL NULL NULL NULL NULL NULL NULL NULL NULL NULL NULL NULL NULL NULL NULL NULL NULL NULL NULL NULL
pair_coeff 2 20 kolmogorov/crespi/z 19 MoWSSe.KC NULL W NULL NULL NULL NULL NULL NULL NULL NULL NULL NULL NULL NULL NULL NULL NULL NULL NULL W NULL NULL NULL NULL NULL NULL NULL NULL NULL NULL NULL NULL NULL NULL NULL NULL NULL NULL NULL NULL
pair_coeff 2 23 kolmogorov/crespi/z 20 MoWSSe.KC NULL W NULL NULL NULL NULL NULL NULL NULL NULL NULL NULL NULL NULL NULL NULL NULL NULL NULL NULL NULL NULL W NULL NULL NULL NULL NULL NULL NULL NULL NULL NULL NULL NULL NULL NULL NULL NULL NULL
pair_coeff 5 14 kolmogorov/crespi/z 21 MoWSSe.KC NULL NULL NULL NULL W NULL NULL NULL NULL NULL NULL NULL NULL W NULL NULL NULL NULL NULL NULL NULL NULL NULL NULL NULL NULL NULL NULL NULL NULL NULL NULL NULL NULL NULL NULL NULL NULL NULL NULL
pair_coeff 5 17 kolmogorov/crespi/z 22 MoWSSe.KC NULL NULL NULL NULL W NULL NULL NULL NULL NULL NULL NULL NULL NULL NULL NULL W NULL NULL NULL NULL NULL NULL NULL NULL NULL NULL NULL NULL NULL NULL NULL NULL NULL NULL NULL NULL NULL NULL NULL
pair_coeff 5 20 kolmogorov/crespi/z 23 MoWSSe.KC NULL NULL NULL NULL W NULL NULL NULL NULL NULL NULL NULL NULL NULL NULL NULL NULL NULL NULL W NULL NULL NULL NULL NULL NULL NULL NULL NULL NULL NULL NULL NULL NULL NULL NULL NULL NULL NULL NULL
pair_coeff 5 23 kolmogorov/crespi/z 24 MoWSSe.KC NULL NULL NULL NULL W NULL NULL NULL NULL NULL NULL NULL NULL NULL NULL NULL NULL NULL NULL NULL NULL NULL W NULL NULL NULL NULL NULL NULL NULL NULL NULL NULL NULL NULL NULL NULL NULL NULL NULL
pair_coeff 8 14 kolmogorov/crespi/z 25 MoWSSe.KC NULL NULL NULL NULL NULL NULL NULL W NULL NULL NULL NULL NULL W NULL NULL NULL NULL NULL NULL NULL NULL NULL NULL NULL NULL NULL NULL NULL NULL NULL NULL NULL NULL NULL NULL NULL NULL NULL NULL
pair_coeff 8 17 kolmogorov/crespi/z 26 MoWSSe.KC NULL NULL NULL NULL NULL NULL NULL W NULL NULL NULL NULL NULL NULL NULL NULL W NULL NULL NULL NULL NULL NULL NULL NULL NULL NULL NULL NULL NULL NULL NULL NULL NULL NULL NULL NULL NULL NULL NULL
pair_coeff 8 20 kolmogorov/crespi/z 27 MoWSSe.KC NULL NULL NULL NULL NULL NULL NULL W NULL NULL NULL NULL NULL NULL NULL NULL NULL NULL NULL W NULL NULL NULL NULL NULL NULL NULL NULL NULL NULL NULL NULL NULL NULL NULL NULL NULL NULL NULL NULL
pair_coeff 8 23 kolmogorov/crespi/z 28 MoWSSe.KC NULL NULL NULL NULL NULL NULL NULL W NULL NULL NULL NULL NULL NULL NULL NULL NULL NULL NULL NULL NULL NULL W NULL NULL NULL NULL NULL NULL NULL NULL NULL NULL NULL NULL NULL NULL NULL NULL NULL
pair_coeff 11 14 kolmogorov/crespi/z 29 MoWSSe.KC NULL NULL NULL NULL NULL NULL NULL NULL NULL NULL W NULL NULL W NULL NULL NULL NULL NULL NULL NULL NULL NULL NULL NULL NULL NULL NULL NULL NULL NULL NULL NULL NULL NULL NULL NULL NULL NULL NULL
pair_coeff 11 17 kolmogorov/crespi/z 30 MoWSSe.KC NULL NULL NULL NULL NULL NULL NULL NULL NULL NULL W NULL NULL NULL NULL NULL W NULL NULL NULL NULL NULL NULL NULL NULL NULL NULL NULL NULL NULL NULL NULL NULL NULL NULL NULL NULL NULL NULL NULL
pair_coeff 11 20 kolmogorov/crespi/z 31 MoWSSe.KC NULL NULL NULL NULL NULL NULL NULL NULL NULL NULL W NULL NULL NULL NULL NULL NULL NULL NULL W NULL NULL NULL NULL NULL NULL NULL NULL NULL NULL NULL NULL NULL NULL NULL NULL NULL NULL NULL NULL
pair_coeff 11 23 kolmogorov/crespi/z 32 MoWSSe.KC NULL NULL NULL NULL NULL NULL NULL NULL NULL NULL W NULL NULL NULL NULL NULL NULL NULL NULL NULL NULL NULL W NULL NULL NULL NULL NULL NULL NULL NULL NULL NULL NULL NULL NULL NULL NULL NULL NULL

#------------------------------------------
# Se-W KC interactions.
#------------------------------------------
pair_coeff 3 14 kolmogorov/crespi/z 33 MoWSSe.KC NULL NULL Se NULL NULL NULL NULL NULL NULL NULL NULL NULL NULL W NULL NULL NULL NULL NULL NULL NULL NULL NULL NULL NULL NULL NULL NULL NULL NULL NULL NULL NULL NULL NULL NULL NULL NULL NULL NULL
pair_coeff 3 17 kolmogorov/crespi/z 34 MoWSSe.KC NULL NULL Se NULL NULL NULL NULL NULL NULL NULL NULL NULL NULL NULL NULL NULL W NULL NULL NULL NULL NULL NULL NULL NULL NULL NULL NULL NULL NULL NULL NULL NULL NULL NULL NULL NULL NULL NULL NULL
pair_coeff 3 20 kolmogorov/crespi/z 35 MoWSSe.KC NULL NULL Se NULL NULL NULL NULL NULL NULL NULL NULL NULL NULL NULL NULL NULL NULL NULL NULL W NULL NULL NULL NULL NULL NULL NULL NULL NULL NULL NULL NULL NULL NULL NULL NULL NULL NULL NULL NULL
pair_coeff 3 23 kolmogorov/crespi/z 36 MoWSSe.KC NULL NULL Se NULL NULL NULL NULL NULL NULL NULL NULL NULL NULL NULL NULL NULL NULL NULL NULL NULL NULL NULL W NULL NULL NULL NULL NULL NULL NULL NULL NULL NULL NULL NULL NULL NULL NULL NULL NULL
pair_coeff 6 14 kolmogorov/crespi/z 37 MoWSSe.KC NULL NULL NULL NULL NULL Se NULL NULL NULL NULL NULL NULL NULL W NULL NULL NULL NULL NULL NULL NULL NULL NULL NULL NULL NULL NULL NULL NULL NULL NULL NULL NULL NULL NULL NULL NULL NULL NULL NULL
pair_coeff 6 17 kolmogorov/crespi/z 38 MoWSSe.KC NULL NULL NULL NULL NULL Se NULL NULL NULL NULL NULL NULL NULL NULL NULL NULL W NULL NULL NULL NULL NULL NULL NULL NULL NULL NULL NULL NULL NULL NULL NULL NULL NULL NULL NULL NULL NULL NULL NULL
pair_coeff 6 20 kolmogorov/crespi/z 39 MoWSSe.KC NULL NULL NULL NULL NULL Se NULL NULL NULL NULL NULL NULL NULL NULL NULL NULL NULL NULL NULL W NULL NULL NULL NULL NULL NULL NULL NULL NULL NULL NULL NULL NULL NULL NULL NULL NULL NULL NULL NULL
pair_coeff 6 23 kolmogorov/crespi/z 40 MoWSSe.KC NULL NULL NULL NULL NULL Se NULL NULL NULL NULL NULL NULL NULL NULL NULL NULL NULL NULL NULL NULL NULL NULL W NULL NULL NULL NULL NULL NULL NULL NULL NULL NULL NULL NULL NULL NULL NULL NULL NULL
pair_coeff 9 14 kolmogorov/crespi/z 41 MoWSSe.KC NULL NULL NULL NULL NULL NULL NULL NULL Se NULL NULL NULL NULL W NULL NULL NULL NULL NULL NULL NULL NULL NULL NULL NULL NULL NULL NULL NULL NULL NULL NULL NULL NULL NULL NULL NULL NULL NULL NULL
pair_coeff 9 17 kolmogorov/crespi/z 42 MoWSSe.KC NULL NULL NULL NULL NULL NULL NULL NULL Se NULL NULL NULL NULL NULL NULL NULL W NULL NULL NULL NULL NULL NULL NULL NULL NULL NULL NULL NULL NULL NULL NULL NULL NULL NULL NULL NULL NULL NULL NULL
pair_coeff 9 20 kolmogorov/crespi/z 43 MoWSSe.KC NULL NULL NULL NULL NULL NULL NULL NULL Se NULL NULL NULL NULL NULL NULL NULL NULL NULL NULL W NULL NULL NULL NULL NULL NULL NULL NULL NULL NULL NULL NULL NULL NULL NULL NULL NULL NULL NULL NULL
pair_coeff 9 23 kolmogorov/crespi/z 44 MoWSSe.KC NULL NULL NULL NULL NULL NULL NULL NULL Se NULL NULL NULL NULL NULL NULL NULL NULL NULL NULL NULL NULL NULL W NULL NULL NULL NULL NULL NULL NULL NULL NULL NULL NULL NULL NULL NULL NULL NULL NULL
pair_coeff 12 14 kolmogorov/crespi/z 45 MoWSSe.KC NULL NULL NULL NULL NULL NULL NULL NULL NULL NULL NULL Se NULL W NULL NULL NULL NULL NULL NULL NULL NULL NULL NULL NULL NULL NULL NULL NULL NULL NULL NULL NULL NULL NULL NULL NULL NULL NULL NULL
pair_coeff 12 17 kolmogorov/crespi/z 46 MoWSSe.KC NULL NULL NULL NULL NULL NULL NULL NULL NULL NULL NULL Se NULL NULL NULL NULL W NULL NULL NULL NULL NULL NULL NULL NULL NULL NULL NULL NULL NULL NULL NULL NULL NULL NULL NULL NULL NULL NULL NULL
pair_coeff 12 20 kolmogorov/crespi/z 47 MoWSSe.KC NULL NULL NULL NULL NULL NULL NULL NULL NULL NULL NULL Se NULL NULL NULL NULL NULL NULL NULL W NULL NULL NULL NULL NULL NULL NULL NULL NULL NULL NULL NULL NULL NULL NULL NULL NULL NULL NULL NULL
pair_coeff 12 23 kolmogorov/crespi/z 48 MoWSSe.KC NULL NULL NULL NULL NULL NULL NULL NULL NULL NULL NULL Se NULL NULL NULL NULL NULL NULL NULL NULL NULL NULL W NULL NULL NULL NULL NULL NULL NULL NULL NULL NULL NULL NULL NULL NULL NULL NULL NULL

#------------------------------------------
# W-S KC interactions.
#------------------------------------------
pair_coeff 2 13 kolmogorov/crespi/z 49 MoWSSe.KC NULL W NULL NULL NULL NULL NULL NULL NULL NULL NULL NULL S NULL NULL NULL NULL NULL NULL NULL NULL NULL NULL NULL NULL NULL NULL NULL NULL NULL NULL NULL NULL NULL NULL NULL NULL NULL NULL NULL
pair_coeff 2 16 kolmogorov/crespi/z 50 MoWSSe.KC NULL W NULL NULL NULL NULL NULL NULL NULL NULL NULL NULL NULL NULL NULL S NULL NULL NULL NULL NULL NULL NULL NULL NULL NULL NULL NULL NULL NULL NULL NULL NULL NULL NULL NULL NULL NULL NULL NULL
pair_coeff 2 19 kolmogorov/crespi/z 51 MoWSSe.KC NULL W NULL NULL NULL NULL NULL NULL NULL NULL NULL NULL NULL NULL NULL NULL NULL NULL S NULL NULL NULL NULL NULL NULL NULL NULL NULL NULL NULL NULL NULL NULL NULL NULL NULL NULL NULL NULL NULL
pair_coeff 2 22 kolmogorov/crespi/z 52 MoWSSe.KC NULL W NULL NULL NULL NULL NULL NULL NULL NULL NULL NULL NULL NULL NULL NULL NULL NULL NULL NULL NULL S NULL NULL NULL NULL NULL NULL NULL NULL NULL NULL NULL NULL NULL NULL NULL NULL NULL NULL
pair_coeff 5 13 kolmogorov/crespi/z 53 MoWSSe.KC NULL NULL NULL NULL W NULL NULL NULL NULL NULL NULL NULL S NULL NULL NULL NULL NULL NULL NULL NULL NULL NULL NULL NULL NULL NULL NULL NULL NULL NULL NULL NULL NULL NULL NULL NULL NULL NULL NULL
pair_coeff 5 16 kolmogorov/crespi/z 54 MoWSSe.KC NULL NULL NULL NULL W NULL NULL NULL NULL NULL NULL NULL NULL NULL NULL S NULL NULL NULL NULL NULL NULL NULL NULL NULL NULL NULL NULL NULL NULL NULL NULL NULL NULL NULL NULL NULL NULL NULL NULL
pair_coeff 5 19 kolmogorov/crespi/z 55 MoWSSe.KC NULL NULL NULL NULL W NULL NULL NULL NULL NULL NULL NULL NULL NULL NULL NULL NULL NULL S NULL NULL NULL NULL NULL NULL NULL NULL NULL NULL NULL NULL NULL NULL NULL NULL NULL NULL NULL NULL NULL
pair_coeff 5 22 kolmogorov/crespi/z 56 MoWSSe.KC NULL NULL NULL NULL W NULL NULL NULL NULL NULL NULL NULL NULL NULL NULL NULL NULL NULL NULL NULL NULL S NULL NULL NULL NULL NULL NULL NULL NULL NULL NULL NULL NULL NULL NULL NULL NULL NULL NULL
pair_coeff 8 13 kolmogorov/crespi/z 57 MoWSSe.KC NULL NULL NULL NULL NULL NULL NULL W NULL NULL NULL NULL S NULL NULL NULL NULL NULL NULL NULL NULL NULL NULL NULL NULL NULL NULL NULL NULL NULL NULL NULL NULL NULL NULL NULL NULL NULL NULL NULL
pair_coeff 8 16 kolmogorov/crespi/z 58 MoWSSe.KC NULL NULL NULL NULL NULL NULL NULL W NULL NULL NULL NULL NULL NULL NULL S NULL NULL NULL NULL NULL NULL NULL NULL NULL NULL NULL NULL NULL NULL NULL NULL NULL NULL NULL NULL NULL NULL NULL NULL
pair_coeff 8 19 kolmogorov/crespi/z 59 MoWSSe.KC NULL NULL NULL NULL NULL NULL NULL W NULL NULL NULL NULL NULL NULL NULL NULL NULL NULL S NULL NULL NULL NULL NULL NULL NULL NULL NULL NULL NULL NULL NULL NULL NULL NULL NULL NULL NULL NULL NULL
pair_coeff 8 22 kolmogorov/crespi/z 60 MoWSSe.KC NULL NULL NULL NULL NULL NULL NULL W NULL NULL NULL NULL NULL NULL NULL NULL NULL NULL NULL NULL NULL S NULL NULL NULL NULL NULL NULL NULL NULL NULL NULL NULL NULL NULL NULL NULL NULL NULL NULL
pair_coeff 11 13 kolmogorov/crespi/z 61 MoWSSe.KC NULL NULL NULL NULL NULL NULL NULL NULL NULL NULL W NULL S NULL NULL NULL NULL NULL NULL NULL NULL NULL NULL NULL NULL NULL NULL NULL NULL NULL NULL NULL NULL NULL NULL NULL NULL NULL NULL NULL
pair_coeff 11 16 kolmogorov/crespi/z 62 MoWSSe.KC NULL NULL NULL NULL NULL NULL NULL NULL NULL NULL W NULL NULL NULL NULL S NULL NULL NULL NULL NULL NULL NULL NULL NULL NULL NULL NULL NULL NULL NULL NULL NULL NULL NULL NULL NULL NULL NULL NULL
pair_coeff 11 19 kolmogorov/crespi/z 63 MoWSSe.KC NULL NULL NULL NULL NULL NULL NULL NULL NULL NULL W NULL NULL NULL NULL NULL NULL NULL S NULL NULL NULL NULL NULL NULL NULL NULL NULL NULL NULL NULL NULL NULL NULL NULL NULL NULL NULL NULL NULL
pair_coeff 11 22 kolmogorov/crespi/z 64 MoWSSe.KC NULL NULL NULL NULL NULL NULL NULL NULL NULL NULL W NULL NULL NULL NULL NULL NULL NULL NULL NULL NULL S NULL NULL NULL NULL NULL NULL NULL NULL NULL NULL NULL NULL NULL NULL NULL NULL NULL NULL

#------------------------------------------
# Se-BN KC interactions (hBN bottom layer).
#------------------------------------------
pair_coeff 25 1 kolmogorov/crespi/z 65 SeBN.KC Se NULL NULL NULL NULL NULL NULL NULL NULL NULL NULL NULL NULL NULL NULL NULL NULL NULL NULL NULL NULL NULL NULL NULL B NULL NULL NULL NULL NULL NULL NULL NULL NULL NULL NULL NULL NULL NULL NULL
pair_coeff 25 4 kolmogorov/crespi/z 66 SeBN.KC NULL NULL NULL Se NULL NULL NULL NULL NULL NULL NULL NULL NULL NULL NULL NULL NULL NULL NULL NULL NULL NULL NULL NULL B NULL NULL NULL NULL NULL NULL NULL NULL NULL NULL NULL NULL NULL NULL NULL
pair_coeff 25 7 kolmogorov/crespi/z 67 SeBN.KC NULL NULL NULL NULL NULL NULL Se NULL NULL NULL NULL NULL NULL NULL NULL NULL NULL NULL NULL NULL NULL NULL NULL NULL B NULL NULL NULL NULL NULL NULL NULL NULL NULL NULL NULL NULL NULL NULL NULL
pair_coeff 25 10 kolmogorov/crespi/z 68 SeBN.KC NULL NULL NULL NULL NULL NULL NULL NULL NULL Se NULL NULL NULL NULL NULL NULL NULL NULL NULL NULL NULL NULL NULL NULL B NULL NULL NULL NULL NULL NULL NULL NULL NULL NULL NULL NULL NULL NULL NULL
pair_coeff 26 1 kolmogorov/crespi/z 69 SeBN.KC Se NULL NULL NULL NULL NULL NULL NULL NULL NULL NULL NULL NULL NULL NULL NULL NULL NULL NULL NULL NULL NULL NULL NULL NULL B NULL NULL NULL NULL NULL NULL NULL NULL NULL NULL NULL NULL NULL NULL
pair_coeff 26 4 kolmogorov/crespi/z 70 SeBN.KC NULL NULL NULL Se NULL NULL NULL NULL NULL NULL NULL NULL NULL NULL NULL NULL NULL NULL NULL NULL NULL NULL NULL NULL NULL B NULL NULL NULL NULL NULL NULL NULL NULL NULL NULL NULL NULL NULL NULL
pair_coeff 26 7 kolmogorov/crespi/z 71 SeBN.KC NULL NULL NULL NULL NULL NULL Se NULL NULL NULL NULL NULL NULL NULL NULL NULL NULL NULL NULL NULL NULL NULL NULL NULL NULL B NULL NULL NULL NULL NULL NULL NULL NULL NULL NULL NULL NULL NULL NULL
pair_coeff 26 10 kolmogorov/crespi/z 72 SeBN.KC NULL NULL NULL NULL NULL NULL NULL NULL NULL Se NULL NULL NULL NULL NULL NULL NULL NULL NULL NULL NULL NULL NULL NULL NULL B NULL NULL NULL NULL NULL NULL NULL NULL NULL NULL NULL NULL NULL NULL
pair_coeff 27 1 kolmogorov/crespi/z 73 SeBN.KC Se NULL NULL NULL NULL NULL NULL NULL NULL NULL NULL NULL NULL NULL NULL NULL NULL NULL NULL NULL NULL NULL NULL NULL NULL NULL B NULL NULL NULL NULL NULL NULL NULL NULL NULL NULL NULL NULL NULL
pair_coeff 27 4 kolmogorov/crespi/z 74 SeBN.KC NULL NULL NULL Se NULL NULL NULL NULL NULL NULL NULL NULL NULL NULL NULL NULL NULL NULL NULL NULL NULL NULL NULL NULL NULL NULL B NULL NULL NULL NULL NULL NULL NULL NULL NULL NULL NULL NULL NULL
pair_coeff 27 7 kolmogorov/crespi/z 75 SeBN.KC NULL NULL NULL NULL NULL NULL Se NULL NULL NULL NULL NULL NULL NULL NULL NULL NULL NULL NULL NULL NULL NULL NULL NULL NULL NULL B NULL NULL NULL NULL NULL NULL NULL NULL NULL NULL NULL NULL NULL
pair_coeff 27 10 kolmogorov/crespi/z 76 SeBN.KC NULL NULL NULL NULL NULL NULL NULL NULL NULL Se NULL NULL NULL NULL NULL NULL NULL NULL NULL NULL NULL NULL NULL NULL NULL NULL B NULL NULL NULL NULL NULL NULL NULL NULL NULL NULL NULL NULL NULL
pair_coeff 28 1 kolmogorov/crespi/z 77 SeBN.KC Se NULL NULL NULL NULL NULL NULL NULL NULL NULL NULL NULL NULL NULL NULL NULL NULL NULL NULL NULL NULL NULL NULL NULL NULL NULL NULL B NULL NULL NULL NULL NULL NULL NULL NULL NULL NULL NULL NULL
pair_coeff 28 4 kolmogorov/crespi/z 78 SeBN.KC NULL NULL NULL Se NULL NULL NULL NULL NULL NULL NULL NULL NULL NULL NULL NULL NULL NULL NULL NULL NULL NULL NULL NULL NULL NULL NULL B NULL NULL NULL NULL NULL NULL NULL NULL NULL NULL NULL NULL
pair_coeff 28 7 kolmogorov/crespi/z 79 SeBN.KC NULL NULL NULL NULL NULL NULL Se NULL NULL NULL NULL NULL NULL NULL NULL NULL NULL NULL NULL NULL NULL NULL NULL NULL NULL NULL NULL B NULL NULL NULL NULL NULL NULL NULL NULL NULL NULL NULL NULL
pair_coeff 28 10 kolmogorov/crespi/z 80 SeBN.KC NULL NULL NULL NULL NULL NULL NULL NULL NULL Se NULL NULL NULL NULL NULL NULL NULL NULL NULL NULL NULL NULL NULL NULL NULL NULL NULL B NULL NULL NULL NULL NULL NULL NULL NULL NULL NULL NULL NULL
pair_coeff 29 1 kolmogorov/crespi/z 81 SeBN.KC Se NULL NULL NULL NULL NULL NULL NULL NULL NULL NULL NULL NULL NULL NULL NULL NULL NULL NULL NULL NULL NULL NULL NULL NULL NULL NULL NULL B NULL NULL NULL NULL NULL NULL NULL NULL NULL NULL NULL
pair_coeff 29 4 kolmogorov/crespi/z 82 SeBN.KC NULL NULL NULL Se NULL NULL NULL NULL NULL NULL NULL NULL NULL NULL NULL NULL NULL NULL NULL NULL NULL NULL NULL NULL NULL NULL NULL NULL B NULL NULL NULL NULL NULL NULL NULL NULL NULL NULL NULL
pair_coeff 29 7 kolmogorov/crespi/z 83 SeBN.KC NULL NULL NULL NULL NULL NULL Se NULL NULL NULL NULL NULL NULL NULL NULL NULL NULL NULL NULL NULL NULL NULL NULL NULL NULL NULL NULL NULL B NULL NULL NULL NULL NULL NULL NULL NULL NULL NULL NULL
pair_coeff 29 10 kolmogorov/crespi/z 84 SeBN.KC NULL NULL NULL NULL NULL NULL NULL NULL NULL Se NULL NULL NULL NULL NULL NULL NULL NULL NULL NULL NULL NULL NULL NULL NULL NULL NULL NULL B NULL NULL NULL NULL NULL NULL NULL NULL NULL NULL NULL
pair_coeff 30 1 kolmogorov/crespi/z 85 SeBN.KC Se NULL NULL NULL NULL NULL NULL NULL NULL NULL NULL NULL NULL NULL NULL NULL NULL NULL NULL NULL NULL NULL NULL NULL NULL NULL NULL NULL NULL B NULL NULL NULL NULL NULL NULL NULL NULL NULL NULL
pair_coeff 30 4 kolmogorov/crespi/z 86 SeBN.KC NULL NULL NULL Se NULL NULL NULL NULL NULL NULL NULL NULL NULL NULL NULL NULL NULL NULL NULL NULL NULL NULL NULL NULL NULL NULL NULL NULL NULL B NULL NULL NULL NULL NULL NULL NULL NULL NULL NULL
pair_coeff 30 7 kolmogorov/crespi/z 87 SeBN.KC NULL NULL NULL NULL NULL NULL Se NULL NULL NULL NULL NULL NULL NULL NULL NULL NULL NULL NULL NULL NULL NULL NULL NULL NULL NULL NULL NULL NULL B NULL NULL NULL NULL NULL NULL NULL NULL NULL NULL
pair_coeff 30 10 kolmogorov/crespi/z 88 SeBN.KC NULL NULL NULL NULL NULL NULL NULL NULL NULL Se NULL NULL NULL NULL NULL NULL NULL NULL NULL NULL NULL NULL NULL NULL NULL NULL NULL NULL NULL B NULL NULL NULL NULL NULL NULL NULL NULL NULL NULL
pair_coeff 31 1 kolmogorov/crespi/z 89 SeBN.KC Se NULL NULL NULL NULL NULL NULL NULL NULL NULL NULL NULL NULL NULL NULL NULL NULL NULL NULL NULL NULL NULL NULL NULL NULL NULL NULL NULL NULL NULL B NULL NULL NULL NULL NULL NULL NULL NULL NULL
pair_coeff 31 4 kolmogorov/crespi/z 90 SeBN.KC NULL NULL NULL Se NULL NULL NULL NULL NULL NULL NULL NULL NULL NULL NULL NULL NULL NULL NULL NULL NULL NULL NULL NULL NULL NULL NULL NULL NULL NULL B NULL NULL NULL NULL NULL NULL NULL NULL NULL
pair_coeff 31 7 kolmogorov/crespi/z 91 SeBN.KC NULL NULL NULL NULL NULL NULL Se NULL NULL NULL NULL NULL NULL NULL NULL NULL NULL NULL NULL NULL NULL NULL NULL NULL NULL NULL NULL NULL NULL NULL B NULL NULL NULL NULL NULL NULL NULL NULL NULL
pair_coeff 31 10 kolmogorov/crespi/z 92 SeBN.KC NULL NULL NULL NULL NULL NULL NULL NULL NULL Se NULL NULL NULL NULL NULL NULL NULL NULL NULL NULL NULL NULL NULL NULL NULL NULL NULL NULL NULL NULL B NULL NULL NULL NULL NULL NULL NULL NULL NULL
pair_coeff 32 1 kolmogorov/crespi/z 93 SeBN.KC Se NULL NULL NULL NULL NULL NULL NULL NULL NULL NULL NULL NULL NULL NULL NULL NULL NULL NULL NULL NULL NULL NULL NULL NULL NULL NULL NULL NULL NULL NULL B NULL NULL NULL NULL NULL NULL NULL NULL
pair_coeff 32 4 kolmogorov/crespi/z 94 SeBN.KC NULL NULL NULL Se NULL NULL NULL NULL NULL NULL NULL NULL NULL NULL NULL NULL NULL NULL NULL NULL NULL NULL NULL NULL NULL NULL NULL NULL NULL NULL NULL B NULL NULL NULL NULL NULL NULL NULL NULL
pair_coeff 32 7 kolmogorov/crespi/z 95 SeBN.KC NULL NULL NULL NULL NULL NULL Se NULL NULL NULL NULL NULL NULL NULL NULL NULL NULL NULL NULL NULL NULL NULL NULL NULL NULL NULL NULL NULL NULL NULL NULL B NULL NULL NULL NULL NULL NULL NULL NULL
pair_coeff 32 10 kolmogorov/crespi/z 96 SeBN.KC NULL NULL NULL NULL NULL NULL NULL NULL NULL Se NULL NULL NULL NULL NULL NULL NULL NULL NULL NULL NULL NULL NULL NULL NULL NULL NULL NULL NULL NULL NULL B NULL NULL NULL NULL NULL NULL NULL NULL

#------------------------------------------
# S-BN KC interactions (hBN top layer).
#------------------------------------------
pair_coeff 15 33 kolmogorov/crespi/z 97 SBN.KC NULL NULL NULL NULL NULL NULL NULL NULL NULL NULL NULL NULL NULL NULL S NULL NULL NULL NULL NULL NULL NULL NULL NULL NULL NULL NULL NULL NULL NULL NULL NULL B NULL NULL NULL NULL NULL NULL NULL
pair_coeff 15 34 kolmogorov/crespi/z 98 SBN.KC NULL NULL NULL NULL NULL NULL NULL NULL NULL NULL NULL NULL NULL NULL S NULL NULL NULL NULL NULL NULL NULL NULL NULL NULL NULL NULL NULL NULL NULL NULL NULL NULL B NULL NULL NULL NULL NULL NULL
pair_coeff 15 35 kolmogorov/crespi/z 99 SBN.KC NULL NULL NULL NULL NULL NULL NULL NULL NULL NULL NULL NULL NULL NULL S NULL NULL NULL NULL NULL NULL NULL NULL NULL NULL NULL NULL NULL NULL NULL NULL NULL NULL NULL B NULL NULL NULL NULL NULL