! Quantum ESPRESSO input file generated from CIF
! Generated by TwisterASEv2

&CONTROL
  calculation = 'scf'
  prefix = 'in.qe'
  pseudo_dir = './'
  outdir = './tmp'
  verbosity = 'high'
  tprnfor = .true.
  tstress = .true.
/

&SYSTEM
  ibrav = 0
  nat = 148
  ntyp = 1
  ecutwfc = 60.0
  ecutrho = 480.0
  occupations = 'smearing'
  smearing = 'gaussian'
  degauss = 0.01
  vdw_corr = 'DFT-D3'
/

&ELECTRONS
  conv_thr = 1.0d-8
  mixing_beta = 0.3
  mixing_mode = 'plain'
/

ATOMIC_SPECIES
  C  12.011  C.upf

CELL_PARAMETERS angstrom
     14.9635958246      0.0000000000      0.0000000000
      7.4817979125     12.9588541162      0.0000000000
      0.0000000000      0.0000000000     35.0000000000

ATOMIC_POSITIONS angstrom
  C        7.2773600000     10.5074000000     17.3902000000
  C       10.1085000000     10.2718000000     17.4067000000
  C        9.5024500000     11.5560000000     17.3903000000
  C       12.3339000000     11.3217000000     17.4251000000
  C       11.7277000000     12.6059000000     17.4139000000
  C       14.5590000000     12.3742000000     17.4406000000
  C        4.8522200000      7.0051600000     17.4380000000
  C        7.6819000000      6.7717000000     17.4388000000
  C        7.0746300000      8.0556700000     17.4226000000
  C        9.9064800000      7.8216300000     17.4316000000
  C        9.2988500000      9.1049400000     17.4138000000
  C       12.1317000000      8.8712900000     17.4366000000
  C       11.5240000000     10.1546000000     17.4236000000
  C       14.3564000000      9.9227300000     17.4454000000
  C       13.7493000000     11.2066000000     17.4402000000
  C       16.5805000000     10.9757000000     17.4366000000
  C       15.9743000000     12.2602000000     17.4387000000
  C       18.8050000000     12.0276000000     17.4067000000
  C        2.4290700000      3.5005700000     17.4138000000
  C        5.2581800000      3.2668700000     17.4388000000
  C        4.6520100000      4.5517000000     17.4389000000
  C        7.4818000000      4.3196200000     17.4503000000
  C        6.8742900000      5.6036100000     17.4451000000
  C        9.7063800000      5.3712700000     17.4446000000
  C        9.0976900000      6.6542500000     17.4389000000
  C       11.9313000000      6.4214200000     17.4406000000
  C       11.3224000000      7.7040600000     17.4387000000
  C       14.1556000000      7.4716700000     17.4454000000
  C       13.5475000000      8.7550800000     17.4471000000
  C       16.3787000000      8.5233000000     17.4454000000
  C       15.7720000000      9.8077200000     17.4471000000
  C       18.6015000000      9.5753800000     17.4251000000
  C       17.9958000000     10.8603000000     17.4236000000
  C       20.8256000000     10.6254000000     17.3947000000
  C       20.2202000000     11.9103000000     17.3903000000
  C        8.0871100000     11.6741000000     17.3805000000
  C       14.9635958232      0.0000000001     17.3753000000
  C       10.3125000000     12.7228000000     17.3947000000
  C        2.2252600000      1.0486800000     17.3902000000
  C        5.0556500000      0.8142250000     17.4255000000
  C        4.4498600000      2.0989700000     17.4226000000
  C        7.2802600000      1.8672500000     17.4446000000
  C        6.6735800000      3.1515100000     17.4451000000
  C        9.5053100000      2.9202800000     17.4388000000
  C        8.8975200000      4.2037400000     17.4451000000
  C       11.7306000000      3.9712100000     17.4255000000
  C       11.1223000000      5.2541300000     17.4380000000
  C       13.9554000000      5.0206700000     17.4251000000
  C       13.3473000000      6.3039600000     17.4402000000
  C       16.1786000000      6.0706900000     17.4366000000
  C       15.5713000000      7.3549100000     17.4471000000
  C       18.4004000000      7.1221400000     17.4406000000
  C       17.7942000000      8.4071100000     17.4402000000
  C        5.6591100000      8.1734200000     17.4255000000
  C       20.0168000000      9.4583000000     17.4139000000
  C        7.8832500000      9.2229600000     17.4072000000
  C        6.4708400000      0.6995660000     17.4380000000
  C        9.3022900000      0.4687780000     17.4316000000
  C        8.6957000000      1.7529000000     17.4389000000
  C       11.5275000000      1.5202800000     17.4072000000
  C       10.9209000000      2.8042100000     17.4226000000
  C       13.7527000000      2.5695000000     17.3947000000
  C       13.1463000000      3.8535000000     17.4139000000
  C       15.9773000000      3.6183000000     17.4067000000
  C       15.3710000000      4.9027700000     17.4236000000
  C        3.2366300000      4.6684400000     17.4316000000
  C       17.5941000000      5.9534500000     17.4387000000
  C        5.4587500000      5.7203400000     17.4446000000
  C       10.7175000000      0.3533490000     17.4138000000
  C       13.5483000000      0.1181660000     17.3805000000
  C       12.9428000000      1.4027900000     17.3902000000
  C        0.8099870000      1.1666100000     17.3805000000
  C       15.1681000000      2.4513400000     17.3903000000
  C        3.0346600000      2.2156100000     17.4072000000
  C        5.6645200000      9.1053500000     20.8861000000
  C        8.4954600000      9.3405500000     20.8933000000
  C        7.6863400000     10.5075000000     20.9097000000
  C       10.5165000000     10.7432000000     20.8928000000
  C        9.7070600000     11.9102000000     20.9098000000
  C       12.5374000000     12.1446000000     20.8745000000
  C        3.8406000000      5.2547900000     20.8613000000
  C        6.6738400000      5.4871800000     20.8546000000
  C        5.8655000000      6.6548900000     20.8598000000
  C        8.6968000000      6.8881700000     20.8634000000
  C        7.8892300000      8.0560800000     20.8764000000
  C       10.7184000000      8.2904100000     20.8684000000
  C        9.9108600000      9.4582900000     20.8862000000
  C       12.7400000000      9.6919900000     20.8612000000
  C       11.9317000000     10.8599000000     20.8774000000
  C       14.7621000000     11.0916000000     20.8554000000
  C       13.9526000000     12.2593000000     20.8620000000
  C       16.7841000000     12.4901000000     20.8684000000
  C       22.4453937357     12.9588541161     20.9247000000
  C        2.8307000000      0.2360920000     20.9053000000
  C        2.0206500000      1.4028100000     20.9097000000
  C        4.8521300000      1.6371900000     20.8749000000
  C        4.0422100000      2.8042300000     20.8764000000
  C        6.8746400000      3.0361200000     20.8546000000
  C        6.0656700000      4.2037800000     20.8529000000
  C        8.8969200000      4.4355500000     20.8546000000
  C        8.0895400000      5.6039400000     20.8529000000
  C       10.9186000000      5.8367100000     20.8594000000
  C       10.1123000000      7.0054000000     20.8613000000
  C       12.9405000000      7.2385200000     20.8554000000
  C       12.1338000000      8.4071500000     20.8611000000
  C       14.9636000000      8.6392400000     20.8497000000
  C       14.1554000000      9.8073400000     20.8549000000
  C       16.9871000000     10.0386000000     20.8612000000
  C       16.1775000000     11.2059000000     20.8611000000
  C       19.0093000000     11.4386000000     20.8928000000
  C       18.1993000000     12.6055000000     20.8862000000
  C       21.0301000000     12.8407000000     20.9195000000
  C        4.2458700000      0.3529450000     20.8861000000
  C        7.0772400000      0.5847020000     20.8594000000
  C        6.2675400000      1.7522200000     20.8598000000
  C        9.0987200000      1.9831200000     20.8634000000
  C        8.2901800000      3.1511400000     20.8529000000
  C       11.1197000000      3.3834800000     20.8749000000
  C       10.3124000000      4.5517400000     20.8598000000
  C       13.1409000000      4.7854300000     20.8745000000
  C       12.3340000000      5.9537000000     20.8620000000
  C       15.1637000000      6.1871500000     20.8612000000
  C       14.3561000000      7.3552500000     20.8549000000
  C       17.1882000000      7.5875800000     20.8554000000
  C       16.3793000000      8.7551200000     20.8549000000
  C       19.2124000000      8.9876500000     20.8745000000
  C       18.4027000000     10.1546000000     20.8774000000
  C        6.2709100000     10.3894000000     20.9053000000
  C       20.4246000000     11.5561000000     20.9098000000
  C        8.2917800000     11.7922000000     20.9195000000
  C        8.4925100000      0.6986630000     20.8613000000
  C       11.3232000000      0.9312980000     20.8933000000
  C       10.5140000000      2.0985400000     20.8764000000
  C       13.3438000000      2.3334100000     20.9053000000
  C       12.5350000000      3.5005500000     20.8861000000
  C       15.3650000000      3.7359000000     20.8928000000
  C       14.5564000000      4.9031800000     20.8774000000
  C       17.3883000000      5.1372200000     20.8684000000
  C       16.5795000000      6.3046100000     20.8611000000
  C        4.4495500000      6.5374400000     20.8594000000
  C       18.6041000000      7.7047200000     20.8620000000
  C        6.4735800000      7.9381900000     20.8749000000
  C       12.7384000000      1.0485300000     20.9097000000
  C       15.5689000000      1.2847700000     20.9195000000
  C       14.7592000000      2.4514700000     20.9098000000
  C        2.6267100000      2.6870100000     20.8933000000
  C       16.7806000000      3.8539200000     20.8862000000
  C        4.6498700000      4.0875700000     20.8634000000

K_POINTS automatic
  4 4 1  0 0 0

