#1 General
units           metal
dimension       3
atom_style      atomic
neighbor        0.3 bin

#2 Structure
boundary        p p p
read_data       structure_ortho.lammps
mass 1 32.06
mass 2 183.84
mass 3 32.06
mass 4 32.06
mass 5 183.84
mass 6 32.06
mass 7 32.06
mass 8 183.84
mass 9 32.06
mass 10 32.06
mass 11 183.84
mass 12 32.06
mass 13 78.971
mass 14 183.84
mass 15 78.971
mass 16 78.971
mass 17 183.84
mass 18 78.971
mass 19 78.971
mass 20 183.84
mass 21 78.971
mass 22 78.971
mass 23 183.84
mass 24 78.971

#3 Potential definitions
pair_style hybrid/overlay sw/mod sw/mod kolmogorov/crespi/z 14.0 kolmogorov/crespi/z 14.0 kolmogorov/crespi/z 14.0 kolmogorov/crespi/z 14.0 kolmogorov/crespi/z 14.0 kolmogorov/crespi/z 14.0 kolmogorov/crespi/z 14.0 kolmogorov/crespi/z 14.0 kolmogorov/crespi/z 14.0 kolmogorov/crespi/z 14.0 kolmogorov/crespi/z 14.0 kolmogorov/crespi/z 14.0 kolmogorov/crespi/z 14.0 kolmogorov/crespi/z 14.0 kolmogorov/crespi/z 14.0 kolmogorov/crespi/z 14.0 kolmogorov/crespi/z 14.0 kolmogorov/crespi/z 14.0 kolmogorov/crespi/z 14.0 kolmogorov/crespi/z 14.0 kolmogorov/crespi/z 14.0 kolmogorov/crespi/z 14.0 kolmogorov/crespi/z 14.0 kolmogorov/crespi/z 14.0 kolmogorov/crespi/z 14.0 kolmogorov/crespi/z 14.0 kolmogorov/crespi/z 14.0 kolmogorov/crespi/z 14.0 kolmogorov/crespi/z 14.0 kolmogorov/crespi/z 14.0 kolmogorov/crespi/z 14.0 kolmogorov/crespi/z 14.0 kolmogorov/crespi/z 14.0 kolmogorov/crespi/z 14.0 kolmogorov/crespi/z 14.0 kolmogorov/crespi/z 14.0 kolmogorov/crespi/z 14.0 kolmogorov/crespi/z 14.0 kolmogorov/crespi/z 14.0 kolmogorov/crespi/z 14.0 kolmogorov/crespi/z 14.0 kolmogorov/crespi/z 14.0 kolmogorov/crespi/z 14.0 kolmogorov/crespi/z 14.0 kolmogorov/crespi/z 14.0 kolmogorov/crespi/z 14.0 kolmogorov/crespi/z 14.0 kolmogorov/crespi/z 14.0 kolmogorov/crespi/z 14.0 kolmogorov/crespi/z 14.0 kolmogorov/crespi/z 14.0 kolmogorov/crespi/z 14.0 kolmogorov/crespi/z 14.0 kolmogorov/crespi/z 14.0 kolmogorov/crespi/z 14.0 kolmogorov/crespi/z 14.0 kolmogorov/crespi/z 14.0 kolmogorov/crespi/z 14.0 kolmogorov/crespi/z 14.0 kolmogorov/crespi/z 14.0 kolmogorov/crespi/z 14.0 kolmogorov/crespi/z 14.0 kolmogorov/crespi/z 14.0 kolmogorov/crespi/z 14.0 lj/cut 10.0

#4 Intralayer interactions
pair_coeff * * sw/mod 1 h-ws2.sw S1 W1 S2 S3 W2 S4 S5 W3 S6 S7 W4 S8 NULL NULL NULL NULL NULL NULL NULL NULL NULL NULL NULL NULL
pair_coeff * * sw/mod 2 h-wse2.sw NULL NULL NULL NULL NULL NULL NULL NULL NULL NULL NULL NULL Se1 W1 Se2 Se3 W2 Se4 Se5 W3 Se6 Se7 W4 Se8

#5 Interlayer interactions
pair_coeff 1 15 kolmogorov/crespi/z 1 WSSe.KC S NULL NULL NULL NULL NULL NULL NULL NULL NULL NULL NULL NULL NULL Se NULL NULL NULL NULL NULL NULL NULL NULL NULL
pair_coeff 1 18 kolmogorov/crespi/z 2 WSSe.KC S NULL NULL NULL NULL NULL NULL NULL NULL NULL NULL NULL NULL NULL NULL NULL NULL Se NULL NULL NULL NULL NULL NULL
pair_coeff 1 21 kolmogorov/crespi/z 3 WSSe.KC S NULL NULL NULL NULL NULL NULL NULL NULL NULL NULL NULL NULL NULL NULL NULL NULL NULL NULL NULL Se NULL NULL NULL
pair_coeff 1 24 kolmogorov/crespi/z 4 WSSe.KC S NULL NULL NULL NULL NULL NULL NULL NULL NULL NULL NULL NULL NULL NULL NULL NULL NULL NULL NULL NULL NULL NULL Se
pair_coeff 4 15 kolmogorov/crespi/z 5 WSSe.KC NULL NULL NULL S NULL NULL NULL NULL NULL NULL NULL NULL NULL NULL Se NULL NULL NULL NULL NULL NULL NULL NULL NULL
pair_coeff 4 18 kolmogorov/crespi/z 6 WSSe.KC NULL NULL NULL S NULL NULL NULL NULL NULL NULL NULL NULL NULL NULL NULL NULL NULL Se NULL NULL NULL NULL NULL NULL
pair_coeff 4 21 kolmogorov/crespi/z 7 WSSe.KC NULL NULL NULL S NULL NULL NULL NULL NULL NULL NULL NULL NULL NULL NULL NULL NULL NULL NULL NULL Se NULL NULL NULL
pair_coeff 4 24 kolmogorov/crespi/z 8 WSSe.KC NULL NULL NULL S NULL NULL NULL NULL NULL NULL NULL NULL NULL NULL NULL NULL NULL NULL NULL NULL NULL NULL NULL Se
pair_coeff 7 15 kolmogorov/crespi/z 9 WSSe.KC NULL NULL NULL NULL NULL NULL S NULL NULL NULL NULL NULL NULL NULL Se NULL NULL NULL NULL NULL NULL NULL NULL NULL
pair_coeff 7 18 kolmogorov/crespi/z 10 WSSe.KC NULL NULL NULL NULL NULL NULL S NULL NULL NULL NULL NULL NULL NULL NULL NULL NULL Se NULL NULL NULL NULL NULL NULL
pair_coeff 7 21 kolmogorov/crespi/z 11 WSSe.KC NULL NULL NULL NULL NULL NULL S NULL NULL NULL NULL NULL NULL NULL NULL NULL NULL NULL NULL NULL Se NULL NULL NULL
pair_coeff 7 24 kolmogorov/crespi/z 12 WSSe.KC NULL NULL NULL NULL NULL NULL S NULL NULL NULL NULL NULL NULL NULL NULL NULL NULL NULL NULL NULL NULL NULL NULL Se
pair_coeff 10 15 kolmogorov/crespi/z 13 WSSe.KC NULL NULL NULL NULL NULL NULL NULL NULL NULL S NULL NULL NULL NULL Se NULL NULL NULL NULL NULL NULL NULL NULL NULL
pair_coeff 10 18 kolmogorov/crespi/z 14 WSSe.KC NULL NULL NULL NULL NULL NULL NULL NULL NULL S NULL NULL NULL NULL NULL NULL NULL Se NULL NULL NULL NULL NULL NULL
pair_coeff 10 21 kolmogorov/crespi/z 15 WSSe.KC NULL NULL NULL NULL NULL NULL NULL NULL NULL S NULL NULL NULL NULL NULL NULL NULL NULL NULL NULL Se NULL NULL NULL
pair_coeff 10 24 kolmogorov/crespi/z 16 WSSe.KC NULL NULL NULL NULL NULL NULL NULL NULL NULL S NULL NULL NULL NULL NULL NULL NULL NULL NULL NULL NULL NULL NULL Se
pair_coeff 2 14 kolmogorov/crespi/z 17 WSSe.KC NULL W NULL NULL NULL NULL NULL NULL NULL NULL NULL NULL NULL W NULL NULL NULL NULL NULL NULL NULL NULL NULL NULL
pair_coeff 2 17 kolmogorov/crespi/z 18 WSSe.KC NULL W NULL NULL NULL NULL NULL NULL NULL NULL NULL NULL NULL NULL NULL NULL W NULL NULL NULL NULL NULL NULL NULL
pair_coeff 2 20 kolmogorov/crespi/z 19 WSSe.KC NULL W NULL NULL NULL NULL NULL NULL NULL NULL NULL NULL NULL NULL NULL NULL NULL NULL NULL W NULL NULL NULL NULL
pair_coeff 2 23 kolmogorov/crespi/z 20 WSSe.KC NULL W NULL NULL NULL NULL NULL NULL NULL NULL NULL NULL NULL NULL NULL NULL NULL NULL NULL NULL NULL NULL W NULL
pair_coeff 5 14 kolmogorov/crespi/z 21 WSSe.KC NULL NULL NULL NULL W NULL NULL NULL NULL NULL NULL NULL NULL W NULL NULL NULL NULL NULL NULL NULL NULL NULL NULL
pair_coeff 5 17 kolmogorov/crespi/z 22 WSSe.KC NULL NULL NULL NULL W NULL NULL NULL NULL NULL NULL NULL NULL NULL NULL NULL W NULL NULL NULL NULL NULL NULL NULL
pair_coeff 5 20 kolmogorov/crespi/z 23 WSSe.KC NULL NULL NULL NULL W NULL NULL NULL NULL NULL NULL NULL NULL NULL NULL NULL NULL NULL NULL W NULL NULL NULL NULL
pair_coeff 5 23 kolmogorov/crespi/z 24 WSSe.KC NULL NULL NULL NULL W NULL NULL NULL NULL NULL NULL NULL NULL NULL NULL NULL NULL NULL NULL NULL NULL NULL W NULL
pair_coeff 8 14 kolmogorov/crespi/z 25 WSSe.KC NULL NULL NULL NULL NULL NULL NULL W NULL NULL NULL NULL NULL W NULL NULL NULL NULL NULL NULL NULL NULL NULL NULL
pair_coeff 8 17 kolmogorov/crespi/z 26 WSSe.KC NULL NULL NULL NULL NULL NULL NULL W NULL NULL NULL NULL NULL NULL NULL NULL W NULL NULL NULL NULL NULL NULL NULL
pair_coeff 8 20 kolmogorov/crespi/z 27 WSSe.KC NULL NULL NULL NULL NULL NULL NULL W NULL NULL NULL NULL NULL NULL NULL NULL NULL NULL NULL W NULL NULL NULL NULL
pair_coeff 8 23 kolmogorov/crespi/z 28 WSSe.KC NULL NULL NULL NULL NULL NULL NULL W NULL NULL NULL NULL NULL NULL NULL NULL NULL NULL NULL NULL NULL NULL W NULL
pair_coeff 11 14 kolmogorov/crespi/z 29 WSSe.KC NULL NULL NULL NULL NULL NULL NULL NULL NULL NULL W NULL NULL W NULL NULL NULL NULL NULL NULL NULL NULL NULL NULL
pair_coeff 11 17 kolmogorov/crespi/z 30 WSSe.KC NULL NULL NULL NULL NULL NULL NULL NULL NULL NULL W NULL NULL NULL NULL NULL W NULL NULL NULL NULL NULL NULL NULL
pair_coeff 11 20 kolmogorov/crespi/z 31 WSSe.KC NULL NULL NULL NULL NULL NULL NULL NULL NULL NULL W NULL NULL NULL NULL NULL NULL NULL NULL W NULL NULL NULL NULL
pair_coeff 11 23 kolmogorov/crespi/z 32 WSSe.KC NULL NULL NULL NULL NULL NULL NULL NULL NULL NULL W NULL NULL NULL NULL NULL NULL NULL NULL NULL NULL NULL W NULL
pair_coeff 1 14 kolmogorov/crespi/z 33 WSSe.KC S NULL NULL NULL NULL NULL NULL NULL NULL NULL NULL NULL NULL W NULL NULL NULL NULL NULL NULL NULL NULL NULL NULL
pair_coeff 1 17 kolmogorov/crespi/z 34 WSSe.KC S NULL NULL NULL NULL NULL NULL NULL NULL NULL NULL NULL NULL NULL NULL NULL W NULL NULL NULL NULL NULL NULL NULL
pair_coeff 1 20 kolmogorov/crespi/z 35 WSSe.KC S NULL NULL NULL NULL NULL NULL NULL NULL NULL NULL NULL NULL NULL NULL NULL NULL NULL NULL W NULL NULL NULL NULL
pair_coeff 1 23 kolmogorov/crespi/z 36 WSSe.KC S NULL NULL NULL NULL NULL NULL NULL NULL NULL NULL NULL NULL NULL NULL NULL NULL NULL NULL NULL NULL NULL W NULL
pair_coeff 4 14 kolmogorov/crespi/z 37 WSSe.KC NULL NULL NULL S NULL NULL NULL NULL NULL NULL NULL NULL NULL W NULL NULL NULL NULL NULL NULL NULL NULL NULL NULL
pair_coeff 4 17 kolmogorov/crespi/z 38 WSSe.KC NULL NULL NULL S NULL NULL NULL NULL NULL NULL NULL NULL NULL NULL NULL NULL W NULL NULL NULL NULL NULL NULL NULL
pair_coeff 4 20 kolmogorov/crespi/z 39 WSSe.KC NULL NULL NULL S NULL NULL NULL NULL NULL NULL NULL NULL NULL NULL NULL NULL NULL NULL NULL W NULL NULL NULL NULL
pair_coeff 4 23 kolmogorov/crespi/z 40 WSSe.KC NULL NULL NULL S NULL NULL NULL NULL NULL NULL NULL NULL NULL NULL NULL NULL NULL NULL NULL NULL NULL NULL W NULL
pair_coeff 7 14 kolmogorov/crespi/z 41 WSSe.KC NULL NULL NULL NULL NULL NULL S NULL NULL NULL NULL NULL NULL W NULL NULL NULL NULL NULL NULL NULL NULL NULL NULL
pair_coeff 7 17 kolmogorov/crespi/z 42 WSSe.KC NULL NULL NULL NULL NULL NULL S NULL NULL NULL NULL NULL NULL NULL NULL NULL W NULL NULL NULL NULL NULL NULL NULL
pair_coeff 7 20 kolmogorov/crespi/z 43 WSSe.KC NULL NULL NULL NULL NULL NULL S NULL NULL NULL NULL NULL NULL NULL NULL NULL NULL NULL NULL W NULL NULL NULL NULL
pair_coeff 7 23 kolmogorov/crespi/z 44 WSSe.KC NULL NULL NULL NULL NULL NULL S NULL NULL NULL NULL NULL NULL NULL NULL NULL NULL NULL NULL NULL NULL NULL W NULL
pair_coeff 10 14 kolmogorov/crespi/z 45 WSSe.KC NULL NULL NULL NULL NULL NULL NULL NULL NULL S NULL NULL NULL W NULL NULL NULL NULL NULL NULL NULL NULL NULL NULL
pair_coeff 10 17 kolmogorov/crespi/z 46 WSSe.KC NULL NULL NULL NULL NULL NULL NULL NULL NULL S NULL NULL NULL NULL NULL NULL W NULL NULL NULL NULL NULL NULL NULL
pair_coeff 10 20 kolmogorov/crespi/z 47 WSSe.KC NULL NULL NULL NULL NULL NULL NULL NULL NULL S NULL NULL NULL NULL NULL NULL NULL NULL NULL W NULL NULL NULL NULL
pair_coeff 10 23 kolmogorov/crespi/z 48 WSSe.KC NULL NULL NULL NULL NULL NULL NULL NULL NULL S NULL NULL NULL NULL NULL NULL NULL NULL NULL NULL NULL NULL W NULL
pair_coeff 2 15 kolmogorov/crespi/z 49 WSSe.KC NULL W NULL NULL NULL NULL NULL NULL NULL NULL NULL NULL NULL NULL Se NULL NULL NULL NULL NULL NULL NULL NULL NULL
pair_coeff 2 18 kolmogorov/crespi/z 50 WSSe.KC NULL W NULL NULL NULL NULL NULL NULL NULL NULL NULL NULL NULL NULL NULL NULL NULL Se NULL NULL NULL NULL NULL NULL
pair_coeff 2 21 kolmogorov/crespi/z 51 WSSe.KC NULL W NULL NULL NULL NULL NULL NULL NULL NULL NULL NULL NULL NULL NULL NULL NULL NULL NULL NULL Se NULL NULL NULL
pair_coeff 2 24 kolmogorov/crespi/z 52 WSSe.KC NULL W NULL NULL NULL NULL NULL NULL NULL NULL NULL NULL NULL NULL NULL NULL NULL NULL NULL NULL NULL NULL NULL Se
pair_coeff 5 15 kolmogorov/crespi/z 53 WSSe.KC NULL NULL NULL NULL W NULL NULL NULL NULL NULL NULL NULL NULL NULL Se NULL NULL NULL NULL NULL NULL NULL NULL NULL
pair_coeff 5 18 kolmogorov/crespi/z 54 WSSe.KC NULL NULL NULL NULL W NULL NULL NULL NULL NULL NULL NULL NULL NULL NULL NULL NULL Se NULL NULL NULL NULL NULL NULL
pair_coeff 5 21 kolmogorov/crespi/z 55 WSSe.KC NULL NULL NULL NULL W NULL NULL NULL NULL NULL NULL NULL NULL NULL NULL NULL NULL NULL NULL NULL Se NULL NULL NULL
pair_coeff 5 24 kolmogorov/crespi/z 56 WSSe.KC NULL NULL NULL NULL W NULL NULL NULL NULL NULL NULL NULL NULL NULL NULL NULL NULL NULL NULL NULL NULL NULL NULL Se
pair_coeff 8 15 kolmogorov/crespi/z 57 WSSe.KC NULL NULL NULL NULL NULL NULL NULL W NULL NULL NULL NULL NULL NULL Se NULL NULL NULL NULL NULL NULL NULL NULL NULL
pair_coeff 8 18 kolmogorov/crespi/z 58 WSSe.KC NULL NULL NULL NULL NULL NULL NULL W NULL NULL NULL NULL NULL NULL NULL NULL NULL Se NULL NULL NULL NULL NULL NULL
pair_coeff 8 21 kolmogorov/crespi/z 59 WSSe.KC NULL NULL NULL NULL NULL NULL NULL W NULL NULL NULL NULL NULL NULL NULL NULL NULL NULL NULL NULL Se NULL NULL NULL
pair_coeff 8 24 kolmogorov/crespi/z 60 WSSe.KC NULL NULL NULL NULL NULL NULL NULL W NULL NULL NULL NULL NULL NULL NULL NULL NULL NULL NULL NULL NULL NULL NULL Se
pair_coeff 11 15 kolmogorov/crespi/z 61 WSSe.KC NULL NULL NULL NULL NULL NULL NULL NULL NULL NULL W NULL NULL NULL Se NULL NULL NULL NULL NULL NULL NULL NULL NULL
pair_coeff 11 18 kolmogorov/crespi/z 62 WSSe.KC NULL NULL NULL NULL NULL NULL NULL NULL NULL NULL W NULL NULL NULL NULL NULL NULL Se NULL NULL NULL NULL NULL NULL
pair_coeff 11 21 kolmogorov/crespi/z 63 WSSe.KC NULL NULL NULL NULL NULL NULL NULL NULL NULL NULL W NULL NULL NULL NULL NULL NULL NULL NULL NULL Se NULL NULL NULL
pair_coeff 11 24 kolmogorov/crespi/z 64 WSSe.KC NULL NULL NULL NULL NULL NULL NULL NULL NULL NULL W NULL NULL NULL NULL NULL NULL NULL NULL NULL NULL NULL NULL Se
pair_coeff * * lj/cut 0.0 3.4

#6 Optimize at 0 K
dump            1 all custom 400 dump.minimization id type x y z
min_style       fire
minimize        0.0 1.0e-8 1000000 1000000
undump          1
write_dump      all custom dump.Final id type x y z modify sort id
print "Done!"
